c This is QMaxSAT 2017 based on 14.07
c This is Glucose 3.0
c This is MiniSat 2.2.0
c WARNING: for repeatability, setting FPU to use double precision
c card = mrwto, comp = 0, pmodel = 0, narr = 16, mct = 152, verb = 0
cr firstCPXsol 0 0 0
c top = 158709225
c |  Number of variables:    55778                                            |
c |  Number of clauses:      8711977                                          |
c |  Weight of hard clauses: 158709225                                        |
c |  Number of soft clauses: 439712                                           |
c |  Number of unit soft clauses: 0                                           |
c |  Maximum Cardinality (by unit): 3195537824   (0           )               |
c last restart ## conflicts  :  0 1174 
o 69218 | cpuTime 0.938493 s
c Sum of weights = 199721114
c A number of soft clauses remained = 27482
c MRWTO encoding for Pseudo-Boolean Constraints
c sizeMax=65536
c No.0 Divisor=10	generated by pow1
c No.1 Divisor=10	generated by pow1
c No.2 Divisor=9	generated by pow1
c No.3 Divisor=10	generated by pow1
c No.4 Divisor=10	generated by pow1
c p0= 10	p1= 10	p2= 9	p3= 10	p4= 10	
c number of digits = 6
c linkingVar[0].size = 10, linkingVar[1].size = 10, linkingVar[2].size = 9, linkingVar[3].size = 10, linkingVar[4].size = 8, linkingVar[5].size = 1, 
c Pseudo-Boolean Constraints: 924485 variables and 8604562 clauses
c Sum of weights = 199721114
c A number of soft clauses remained = 27482
c MRWTO encoding for Pseudo-Boolean Constraints
c sizeMax=65536
c No.0 Divisor=10	generated by pow1
c No.1 Divisor=10	generated by pow1
c No.2 Divisor=9	generated by pow1
c No.3 Divisor=10	generated by pow1
c No.4 Divisor=10	generated by pow1
c p0= 10	p1= 10	p2= 9	p3= 10	p4= 10	
c number of digits = 6
c linkingVar[0].size = 10, linkingVar[1].size = 10, linkingVar[2].size = 9, linkingVar[3].size = 10, linkingVar[4].size = 8, linkingVar[5].size = 1, 
c Pseudo-Boolean Constraints: 924485 variables and 8604562 clauses
c Sum of weights = 199721114
c A number of soft clauses remained = 27482
c MRWTO encoding for Pseudo-Boolean Constraints
c sizeMax=65536
c No.0 Divisor=10	generated by pow1
c No.1 Divisor=10	generated by pow1
c No.2 Divisor=9	generated by pow1
c No.3 Divisor=10	generated by pow1
c No.4 Divisor=10	generated by pow1
c p0= 10	p1= 10	p2= 9	p3= 10	p4= 10	
c number of digits = 6
c linkingVar[0].size = 10, linkingVar[1].size = 10, linkingVar[2].size = 9, linkingVar[3].size = 10, linkingVar[4].size = 8, linkingVar[5].size = 1, 
c Pseudo-Boolean Constraints: 924485 variables and 8604562 clauses
c Sum of weights = 199721114
c A number of soft clauses remained = 27482
c MRWTO encoding for Pseudo-Boolean Constraints
c sizeMax=65536
c No.0 Divisor=10	generated by pow1
c No.1 Divisor=10	generated by pow1
c No.2 Divisor=9	generated by pow1
c No.3 Divisor=10	generated by pow1
c No.4 Divisor=10	generated by pow1
c p0= 10	p1= 10	p2= 9	p3= 10	p4= 10	
c number of digits = 6
c linkingVar[0].size = 10, linkingVar[1].size = 10, linkingVar[2].size = 9, linkingVar[3].size = 10, linkingVar[4].size = 8, linkingVar[5].size = 1, 
c Pseudo-Boolean Constraints: 924485 variables and 8604562 clauses
c Sum of weights = 199721114
c A number of soft clauses remained = 27482
c MRWTO encoding for Pseudo-Boolean Constraints
c sizeMax=65536
c No.0 Divisor=10	generated by pow1
c No.1 Divisor=10	generated by pow1
c No.2 Divisor=9	generated by pow1
c No.3 Divisor=10	generated by pow1
c No.4 Divisor=10	generated by pow1
c p0= 10	p1= 10	p2= 9	p3= 10	p4= 10	
c number of digits = 6
c linkingVar[0].size = 10, linkingVar[1].size = 10, linkingVar[2].size = 9, linkingVar[3].size = 10, linkingVar[4].size = 8, linkingVar[5].size = 1, 
c Pseudo-Boolean Constraints: 924485 variables and 8604562 clauses
c Sum of weights = 199721114
c A number of soft clauses remained = 27482
c MRWTO encoding for Pseudo-Boolean Constraints
c sizeMax=65536
c No.0 Divisor=10	generated by pow1
c No.1 Divisor=10	generated by pow1
c No.2 Divisor=9	generated by pow1
c No.3 Divisor=10	generated by pow1
c No.4 Divisor=10	generated by pow1
c p0= 10	p1= 10	p2= 9	p3= 10	p4= 10	
c number of digits = 6
c linkingVar[0].size = 10, linkingVar[1].size = 10, linkingVar[2].size = 9, linkingVar[3].size = 10, linkingVar[4].size = 8, linkingVar[5].size = 1, 
c Pseudo-Boolean Constraints: 924485 variables and 8604562 clauses
c Sum of weights = 199721114
c A number of soft clauses remained = 27482
c MRWTO encoding for Pseudo-Boolean Constraints
c sizeMax=65536
c No.0 Divisor=10	generated by pow1
c No.1 Divisor=10	generated by pow1
c No.2 Divisor=9	generated by pow1
c No.3 Divisor=10	generated by pow1
c No.4 Divisor=10	generated by pow1
c p0= 10	p1= 10	p2= 9	p3= 10	p4= 10	
c number of digits = 6
c linkingVar[0].size = 10, linkingVar[1].size = 10, linkingVar[2].size = 9, linkingVar[3].size = 10, linkingVar[4].size = 8, linkingVar[5].size = 1, 
c Pseudo-Boolean Constraints: 924485 variables and 8604562 clauses
c Sum of weights = 199721114
c A number of soft clauses remained = 27482
c MRWTO encoding for Pseudo-Boolean Constraints
c sizeMax=65536
c No.0 Divisor=10	generated by pow1
c No.1 Divisor=10	generated by pow1
c No.2 Divisor=9	generated by pow1
c No.3 Divisor=10	generated by pow1
c No.4 Divisor=10	generated by pow1
c p0= 10	p1= 10	p2= 9	p3= 10	p4= 10	
c number of digits = 6
c linkingVar[0].size = 10, linkingVar[1].size = 10, linkingVar[2].size = 9, linkingVar[3].size = 10, linkingVar[4].size = 8, linkingVar[5].size = 1, 
c Pseudo-Boolean Constraints: 924485 variables and 8604562 clauses
c Sum of weights = 199721114
c A number of soft clauses remained = 27482
c MRWTO encoding for Pseudo-Boolean Constraints
c sizeMax=65536
c No.0 Divisor=10	generated by pow1
c No.1 Divisor=10	generated by pow1
c No.2 Divisor=9	generated by pow1
c No.3 Divisor=10	generated by pow1
c No.4 Divisor=10	generated by pow1
c p0= 10	p1= 10	p2= 9	p3= 10	p4= 10	
c number of digits = 6
c linkingVar[0].size = 10, linkingVar[1].size = 10, linkingVar[2].size = 9, linkingVar[3].size = 10, linkingVar[4].size = 8, linkingVar[5].size = 1, 
c Pseudo-Boolean Constraints: 924485 variables and 8604562 clauses
c Sum of weights = 199721114
c A number of soft clauses remained = 27482
c MRWTO encoding for Pseudo-Boolean Constraints
c sizeMax=65536
c No.0 Divisor=10	generated by pow1
c No.1 Divisor=10	generated by pow1
c No.2 Divisor=9	generated by pow1
c No.3 Divisor=10	generated by pow1
c No.4 Divisor=10	generated by pow1
c p0= 10	p1= 10	p2= 9	p3= 10	p4= 10	
c number of digits = 6
c linkingVar[0].size = 10, linkingVar[1].size = 10, linkingVar[2].size = 9, linkingVar[3].size = 10, linkingVar[4].size = 8, linkingVar[5].size = 1, 
c Pseudo-Boolean Constraints: 924485 variables and 8604562 clauses
c Sum of weights = 199721114
c A number of soft clauses remained = 27482
c MRWTO encoding for Pseudo-Boolean Constraints
c sizeMax=65536
c No.0 Divisor=10	generated by pow1
c No.1 Divisor=10	generated by pow1
c No.2 Divisor=9	generated by pow1
c No.3 Divisor=10	generated by pow1
c No.4 Divisor=10	generated by pow1
c p0= 10	p1= 10	p2= 9	p3= 10	p4= 10	
c number of digits = 6
c linkingVar[0].size = 10, linkingVar[1].size = 10, linkingVar[2].size = 9, linkingVar[3].size = 10, linkingVar[4].size = 8, linkingVar[5].size = 1, 
c Pseudo-Boolean Constraints: 924485 variables and 8604562 clauses
c Sum of weights = 199721114
c A number of soft clauses remained = 27482
c MRWTO encoding for Pseudo-Boolean Constraints
c sizeMax=65536
c No.0 Divisor=10	generated by pow1
c No.1 Divisor=10	generated by pow1
c No.2 Divisor=9	generated by pow1
c No.3 Divisor=10	generated by pow1
c No.4 Divisor=10	generated by pow1
c p0= 10	p1= 10	p2= 9	p3= 10	p4= 10	
c number of digits = 6
c linkingVar[0].size = 10, linkingVar[1].size = 10, linkingVar[2].size = 9, linkingVar[3].size = 10, linkingVar[4].size = 8, linkingVar[5].size = 1, 
c Pseudo-Boolean Constraints: 924485 variables and 8604562 clauses
c Sum of weights = 199721114
c A number of soft clauses remained = 27482
c MRWTO encoding for Pseudo-Boolean Constraints
c sizeMax=65536
c No.0 Divisor=10	generated by pow1
c No.1 Divisor=10	generated by pow1
c No.2 Divisor=9	generated by pow1
c No.3 Divisor=10	generated by pow1
c No.4 Divisor=10	generated by pow1
c p0= 10	p1= 10	p2= 9	p3= 10	p4= 10	
c number of digits = 6
c linkingVar[0].size = 10, linkingVar[1].size = 10, linkingVar[2].size = 9, linkingVar[3].size = 10, linkingVar[4].size = 8, linkingVar[5].size = 1, 
c Pseudo-Boolean Constraints: 924485 variables and 8604562 clauses
c Sum of weights = 199721114
c A number of soft clauses remained = 27482
c MRWTO encoding for Pseudo-Boolean Constraints
c sizeMax=65536
c No.0 Divisor=10	generated by pow1
c No.1 Divisor=10	generated by pow1
c No.2 Divisor=9	generated by pow1
c No.3 Divisor=10	generated by pow1
c No.4 Divisor=10	generated by pow1
c p0= 10	p1= 10	p2= 9	p3= 10	p4= 10	
c number of digits = 6
c linkingVar[0].size = 10, linkingVar[1].size = 10, linkingVar[2].size = 9, linkingVar[3].size = 10, linkingVar[4].size = 8, linkingVar[5].size = 1, 
c Pseudo-Boolean Constraints: 924485 variables and 8604562 clauses
c Sum of weights = 199721114
c A number of soft clauses remained = 27482
c MRWTO encoding for Pseudo-Boolean Constraints
c sizeMax=65536
c No.0 Divisor=10	generated by pow1
c No.1 Divisor=10	generated by pow1
c No.2 Divisor=9	generated by pow1
c No.3 Divisor=10	generated by pow1
c No.4 Divisor=10	generated by pow1
c p0= 10	p1= 10	p2= 9	p3= 10	p4= 10	
c number of digits = 6
c linkingVar[0].size = 10, linkingVar[1].size = 10, linkingVar[2].size = 9, linkingVar[3].size = 10, linkingVar[4].size = 8, linkingVar[5].size = 1, 
c Pseudo-Boolean Constraints: 924485 variables and 8604562 clauses
c Sum of weights = 199721114
c A number of soft clauses remained = 27482
c MRWTO encoding for Pseudo-Boolean Constraints
c sizeMax=65536
c No.0 Divisor=10	generated by pow1
c No.1 Divisor=10	generated by pow1
c No.2 Divisor=9	generated by pow1
c No.3 Divisor=10	generated by pow1
c No.4 Divisor=10	generated by pow1
c p0= 10	p1= 10	p2= 9	p3= 10	p4= 10	
c number of digits = 6
c linkingVar[0].size = 10, linkingVar[1].size = 10, linkingVar[2].size = 9, linkingVar[3].size = 10, linkingVar[4].size = 8, linkingVar[5].size = 1, 
c Pseudo-Boolean Constraints: 924485 variables and 8604562 clauses
s UNKNOWN
c Search is stopped by a limit (maybe time-limit)
cr positiVarArr: [ | 17(1->2) | 185(1->3) | 353(1->4) | 521(1->5) | 689(1->6) | 857(1->7) | 1025(1->8) | 1193(1->9) | 1361(1->10) | 1529(1->11) | 1697(1->12) | 1865(1->13) | 2033(1->14) | 2201(1->15) | 2369(1->16) | 2537(1->17) | 2705(2->18) | 2873(3->19) | 3041(4->20) | 3209(5->21) | 3377(6->22) | 3545(7->23) | 3713(8->24) | 3881(9->25) | 4049(10->26) | 4217(11->27) | 4385(12->28) | 4553(13->29) | 4721(14->30) | 4889(15->31) | 5057(16->32) | 5225(17->33) | 5393(18->34) | 5561(19->35) | 5729(20->36) | 5897(21->37) | 6065(22->38) | 6233(23->39) | 6401(24->40) | 6569(25->41) | 6737(26->42) | 6905(27->43) | 7073(28->44) | 7241(29->45) | 7409(30->46) | 7577(31->47) | 7745(32->48) | 7913(33->49) | 8081(34->50) | 8249(35->51) | 8417(36->52) | 8585(37->53) | 8753(38->54) | 8921(39->55) | 9089(40->56) | 9257(41->57) | 9425(42->58) | 9593(43->59) | 9761(44->60) | 9929(45->61) | 10097(46->62) | 10265(47->63) | 10433(48->64) | 10601(49->65) | 10769(50->66) | 10937(51->67) | 11105(52->68) | 11273(53->69) | 11441(54->70) | 11609(55->71) | 11777(56->72) | 11945(57->73) | 12113(58->74) | 12281(59->75) | 12449(60->76) | 12617(61->77) | 12785(62->78) | 12953(63->79) | 13121(64->80) | 13289(65->81) | 13457(66->82) | 13625(67->83) | 13793(68->84) | 13961(69->85) | 14129(70->86) | 14297(71->87) | 14465(72->88) | 14633(73->89) | 14801(74->90) | 14969(75->91) | 15137(76->92) | 15305(77->93) | 15473(78->94) | 15641(79->95) | 15809(80->96) | 15977(81->97) | 16145(82->98) | 16313(83->99) | 16481(84->100) | 16649(85->101) | 16817(86->102) | 16985(87->103) | 17153(88->104) | 17321(89->105) | 17489(90->106) | 17657(91->107) | 17825(92->108) | 17993(93->109) | 18161(94->110) | 18329(95->111) | 18497(96->112) | 18665(97->113) | 18833(98->114) | 19001(99->115) | 19169(100->116) | 19337(101->117) | 19505(102->118) | 19673(103->119) | 19841(104->120) | 20009(105->121) | 20177(106->122) | 20345(107->123) | 20513(108->124) | 20681(109->125) | 20849(110->126) | 21017(111->127) | 21185(112->128) | 21353(113->129) | 21521(114->130) | 21689(115->131) | 21857(116->132) | 22025(117->133) | 22193(118->134) | 22361(119->135) | 22529(120->136) | 22697(121->137) | 22865(122->138) | 23033(123->139) | 23201(124->140) | 23369(125->141) | 23537(126->142) | 23705(127->143) | 23873(128->144) | 24041(129->145) | 24209(130->146) | 24377(131->147) | 24545(132->148) | 24713(133->149) | 24881(134->150) | 25049(135->151) | 25217(136->152) | 25233(137->1) | 25399(138->1) | 25565(139->1) | 25731(140->1) | 25897(141->1) | 26063(142->1) | 26229(143->1) | 26395(144->1) | 26561(145->1) | 26727(146->1) | 26893(147->1) | 27059(148->1) | 27225(149->1) | 27391(150->1) | 27557(151->1) | 27723(152->1) | ]
cr the 1-th chain: [ 1->2->18->34->50->66->82->98->114->130->146->1 ] (#non-depot=10) {#cumul.=11}
cr the 2-th chain: [ 1->3->19->35->51->67->83->99->115->131->147->1 ] (#non-depot=10) {#cumul.=21}
cr the 3-th chain: [ 1->4->20->36->52->68->84->100->116->132->148->1 ] (#non-depot=10) {#cumul.=31}
cr the 4-th chain: [ 1->5->21->37->53->69->85->101->117->133->149->1 ] (#non-depot=10) {#cumul.=41}
cr the 5-th chain: [ 1->6->22->38->54->70->86->102->118->134->150->1 ] (#non-depot=10) {#cumul.=51}
cr the 6-th chain: [ 1->7->23->39->55->71->87->103->119->135->151->1 ] (#non-depot=10) {#cumul.=61}
cr the 7-th chain: [ 1->8->24->40->56->72->88->104->120->136->152->1 ] (#non-depot=10) {#cumul.=71}
cr the 8-th chain: [ 1->9->25->41->57->73->89->105->121->137->1 ] (#non-depot=9) {#cumul.=80}
cr the 9-th chain: [ 1->10->26->42->58->74->90->106->122->138->1 ] (#non-depot=9) {#cumul.=89}
cr the 10-th chain: [ 1->11->27->43->59->75->91->107->123->139->1 ] (#non-depot=9) {#cumul.=98}
cr the 11-th chain: [ 1->12->28->44->60->76->92->108->124->140->1 ] (#non-depot=9) {#cumul.=107}
cr the 12-th chain: [ 1->13->29->45->61->77->93->109->125->141->1 ] (#non-depot=9) {#cumul.=116}
cr the 13-th chain: [ 1->14->30->46->62->78->94->110->126->142->1 ] (#non-depot=9) {#cumul.=125}
cr the 14-th chain: [ 1->15->31->47->63->79->95->111->127->143->1 ] (#non-depot=9) {#cumul.=134}
cr the 15-th chain: [ 1->16->32->48->64->80->96->112->128->144->1 ] (#non-depot=9) {#cumul.=143}
cr the 16-th chain: [ 1->17->33->49->65->81->97->113->129->145->1 ] (#non-depot=9) {#cumul.=152}
c Latest Answer = 0 by 1 loops
c restarts              : 2052
c conflicts             : 288347         (80 /sec)
c decisions             : 109340247      (0.00 % random) (30334 /sec)
c propagations          : 24406878582    (6771251 /sec)
c conflict literals     : 27897901       (12.04 % deleted)
c Memory used           : 9685.00 MB
c CPU time              : 3604.49 s
